; PUSH cw_0 MLOAD POP => 
(set-option :produce-proofs true)
; 
(set-info :status unknown)
(declare-fun storage_t ((_ BitVec 256) (_ BitVec 256) Int (_ BitVec 256)) (_ BitVec 256))
(declare-fun w_0 () (_ BitVec 256))
(declare-fun storage_s ((_ BitVec 256) (_ BitVec 256) Int (_ BitVec 256)) (_ BitVec 256))
(declare-fun exc_halt_t (Int) Bool)
(declare-fun exc_halt_s (Int) Bool)
(declare-fun sc_t (Int) (_ BitVec 6))
(declare-fun stack_t ((_ BitVec 256) (_ BitVec 256) Int (_ BitVec 6)) (_ BitVec 256))
(declare-fun stack_s ((_ BitVec 256) (_ BitVec 256) Int (_ BitVec 6)) (_ BitVec 256))
(declare-fun sc_s (Int) (_ BitVec 6))
(declare-fun used_gas_t ((_ BitVec 256) (_ BitVec 256) Int) Int)
(declare-fun used_gas_s ((_ BitVec 256) (_ BitVec 256) Int) Int)
(declare-fun f_MLOAD ((_ BitVec 256) (_ BitVec 256) (_ BitVec 256)) (_ BitVec 256))
(assert
 (exists ((x_MLOAD_0 (_ BitVec 256)) )(let (($x7451 (forall ((w (_ BitVec 256)) )(let ((?x14 (storage_t w_0 x_MLOAD_0 0 w)))
 (let ((?x4228 (storage_s w_0 x_MLOAD_0 3 w)))
 (= ?x4228 ?x14))))
 ))
 (let (($x56 (exc_halt_t 0)))
 (let (($x292 (exc_halt_s 3)))
 (let (($x673 (= $x292 $x56)))
 (let (($x5587 (forall ((n (_ BitVec 6)) )(let ((?x63 (sc_t 0)))
 (let (($x2695 (bvsle ?x63 n)))
 (let ((?x5186 (stack_t w_0 x_MLOAD_0 0 n)))
 (let ((?x4783 (stack_s w_0 x_MLOAD_0 3 n)))
 (let (($x627 (= ?x4783 ?x5186)))
 (or $x627 $x2695)))))))
 ))
 (let ((?x63 (sc_t 0)))
 (let ((?x275 (sc_s 3)))
 (let (($x10371 (= ?x275 ?x63)))
 (let ((?x10299 (used_gas_s w_0 x_MLOAD_0 0)))
 (let (($x9544 (= ?x10299 (used_gas_t w_0 x_MLOAD_0 0))))
 (let (($x117 (forall ((w (_ BitVec 256)) )(let ((?x14 (storage_t w_0 x_MLOAD_0 0 w)))
 (let ((?x2623 (storage_s w_0 x_MLOAD_0 0 w)))
 (= ?x2623 ?x14))))
 ))
 (let (($x57 (exc_halt_s 0)))
 (let (($x58 (= $x57 $x56)))
 (let (($x9684 (forall ((n (_ BitVec 6)) )(let ((?x5186 (stack_t w_0 x_MLOAD_0 0 n)))
 (let ((?x2305 (stack_s w_0 x_MLOAD_0 0 n)))
 (let (($x7252 (= ?x2305 ?x5186)))
 (let ((?x63 (sc_t 0)))
 (let (($x2695 (bvsle ?x63 n)))
 (or $x2695 $x7252)))))))
 ))
 (let ((?x72 (sc_s 0)))
 (let (($x73 (= ?x72 ?x63)))
 (let (($x9397 (= $x292 (or (exc_halt_s 2) (not (bvsle (_ bv0 6) (bvadd (_ bv63 6) (sc_s 2))))))))
 (let (($x6178 (forall ((w (_ BitVec 256)) )(let ((?x5309 (storage_s w_0 x_MLOAD_0 2 w)))
 (let ((?x4228 (storage_s w_0 x_MLOAD_0 3 w)))
 (= ?x4228 ?x5309))))
 ))
 (let (($x662 (forall ((n (_ BitVec 6)) )(let ((?x218 (sc_s 2)))
 (let ((?x3669 (bvadd (_ bv63 6) ?x218)))
 (let (($x9669 (bvsle ?x3669 n)))
 (or (= (stack_s w_0 x_MLOAD_0 3 n) (stack_s w_0 x_MLOAD_0 2 n)) $x9669)))))
 ))
 (let (($x3733 (= (used_gas_s w_0 x_MLOAD_0 3) (+ 2 (used_gas_s w_0 x_MLOAD_0 2)))))
 (let (($x247 (exc_halt_s 2)))
 (let (($x4347 (= $x247 (or (exc_halt_s 1) (not (bvsle (_ bv0 6) (bvadd (_ bv63 6) (sc_s 1))))))))
 (let (($x5554 (forall ((w (_ BitVec 256)) )(let ((?x5504 (storage_s w_0 x_MLOAD_0 1 w)))
 (let ((?x5309 (storage_s w_0 x_MLOAD_0 2 w)))
 (= ?x5309 ?x5504))))
 ))
 (let (($x7807 (forall ((n (_ BitVec 6)) )(let ((?x154 (sc_s 1)))
 (let ((?x1806 (bvadd (_ bv63 6) ?x154)))
 (let (($x10480 (bvsle ?x1806 n)))
 (or (= (stack_s w_0 x_MLOAD_0 2 n) (stack_s w_0 x_MLOAD_0 1 n)) $x10480)))))
 ))
 (let ((?x154 (sc_s 1)))
 (let ((?x218 (sc_s 2)))
 (let (($x1458 (= ?x218 ?x154)))
 (let ((?x6909 (used_gas_s w_0 x_MLOAD_0 2)))
 (let (($x7024 (= (stack_s w_0 x_MLOAD_0 2 (bvadd (_ bv63 6) ?x218)) (f_MLOAD w_0 x_MLOAD_0 (stack_s w_0 x_MLOAD_0 1 (bvadd (_ bv63 6) ?x154))))))
 (let (($x189 (exc_halt_s 1)))
 (let (($x255 (= $x189 (or $x57 (not (= ((_ extract 6 6) (bvadd (_ bv1 7) (concat (_ bv0 1) ?x72))) (_ bv0 1)))))))
 (let (($x1495 (forall ((w (_ BitVec 256)) )(let ((?x2623 (storage_s w_0 x_MLOAD_0 0 w)))
 (let ((?x5504 (storage_s w_0 x_MLOAD_0 1 w)))
 (= ?x5504 ?x2623))))
 ))
 (let (($x10347 (forall ((n (_ BitVec 6)) )(let ((?x72 (sc_s 0)))
 (let (($x6067 (bvsle ?x72 n)))
 (or (= (stack_s w_0 x_MLOAD_0 1 n) (stack_s w_0 x_MLOAD_0 0 n)) $x6067))))
 ))
 (let (($x10892 (= ?x154 (bvadd (_ bv1 6) ?x72))))
 (let (($x9740 (forall ((w0 (_ BitVec 256)) )(let ((?x5271 (ite (= (stack_s w_0 x_MLOAD_0 1 (bvadd (_ bv63 6) (sc_s 1))) w0) x_MLOAD_0 (_ bv0 256))))
 (let ((?x6641 (f_MLOAD w_0 x_MLOAD_0 w0)))
 (= ?x6641 ?x5271))))
 ))
 (let (($x10436 (forall ((w (_ BitVec 256)) )(let ((?x2623 (storage_s w_0 x_MLOAD_0 0 w)))
 (= ?x2623 (_ bv0 256))))
 ))
 (let (($x462 (= ?x10299 0)))
 (let (($x4490 (not $x57)))
 (let (($x136 (= ?x72 (_ bv0 6))))
 (and $x136 $x4490 $x462 $x10436 $x9740 (= (stack_s w_0 x_MLOAD_0 1 ?x72) w_0) (= (used_gas_s w_0 x_MLOAD_0 1) (+ 3 ?x10299)) $x10892 $x10347 $x1495 $x255 $x7024 (= ?x6909 (+ 3 (used_gas_s w_0 x_MLOAD_0 1))) $x1458 $x7807 $x5554 $x4347 $x3733 (= ?x275 (bvadd (_ bv63 6) ?x218)) $x662 $x6178 $x9397 $x73 $x9684 $x58 $x117 $x9544 (not (and $x10371 $x5587 $x673 $x7451)))))))))))))))))))))))))))))))))))))))))))
 )
(check-sat)
(get-proof)
